p cnf 51 112
2 3 -1 0
-2 -3 -1 0
2 -3 1 0
-2 3 1 0
2 5 -4 0
-2 -5 -4 0
2 -5 4 0
-2 5 4 0
2 7 -6 0
-2 -7 -6 0
2 -7 6 0
-2 7 6 0
9 3 -8 0
-9 -3 -8 0
9 -3 8 0
-9 3 8 0
9 5 -10 0
-9 -5 -10 0
9 -5 10 0
-9 5 10 0
9 7 -11 0
-9 -7 -11 0
9 -7 11 0
-9 7 11 0
13 3 -12 0
-13 -3 -12 0
13 -3 12 0
-13 3 12 0
13 5 -14 0
-13 -5 -14 0
13 -5 14 0
-13 5 14 0
13 7 -15 0
-13 -7 -15 0
13 -7 15 0
-13 7 15 0
-2 16 0
-17 0
-18 0
-9 19 0
-16 19 0
-17 20 0
-9 -16 20 0
-18 21 0
-9 -17 21 0
-9 -18 0
-13 22 0
-19 22 0
-20 23 0
-13 -19 23 0
-21 24 0
-13 -20 24 0
-13 -21 0
-3 25 0
-22 25 0
-23 26 0
-3 -22 26 0
-24 27 0
-3 -23 27 0
-3 -24 0
-5 28 0
-25 28 0
-26 29 0
-5 -25 29 0
-27 30 0
-5 -26 30 0
-5 -27 0
-7 31 0
-28 31 0
-29 32 0
-7 -28 32 0
-30 33 0
-7 -29 33 0
-7 -30 0
2 34 0
-35 0
-36 0
9 37 0
-34 37 0
-35 38 0
9 -34 38 0
-36 39 0
9 -35 39 0
9 -36 0
13 40 0
-37 40 0
-38 41 0
13 -37 41 0
-39 42 0
13 -38 42 0
13 -39 0
3 43 0
-40 43 0
-41 44 0
3 -40 44 0
-42 45 0
3 -41 45 0
3 -42 0
5 46 0
-43 46 0
-44 47 0
5 -43 47 0
-45 48 0
5 -44 48 0
5 -45 0
7 49 0
-46 49 0
-47 50 0
7 -46 50 0
-48 51 0
7 -47 51 0
7 -48 0
